unsat
(:SPACER-conj                         2
 :SPACER-expand-pob-undef             22
 :SPACER-inductive-gen                56
 :SPACER-inductive-gen-weaken-fail    107
 :SPACER-inductive-gen-weaken-success 23
 :SPACER-inductive-level              3
 :SPACER-max-depth                    11
 :SPACER-max-query-lvl                11
 :SPACER-non-local-gen                29
 :SPACER-num-active-lemmas            10
 :SPACER-num-ctp-blocked              37
 :SPACER-num-invariants               37
 :SPACER-num-is_invariant             194
 :SPACER-num-lemma-jumped             14
 :SPACER-num-lemmas                   92
 :SPACER-num-pobs                     40
 :SPACER-num-propagations             58
 :SPACER-num-queries                  78
 :SPACER-num-reach-queries            10
 :SPACER-num-reuse-reach-facts        8
 :SPACER-subsume-failed               1
 :SPACER-subsume-pob                  10
 :SPACER-subsume-success              19
 :added-eqs                           52300
 :arith-assert-diseq                  21440
 :arith-assert-lower                  43176
 :arith-assert-upper                  41272
 :arith-bound-prop                    5828
 :arith-branch-var                    50
 :arith-conflicts                     306
 :arith-eq-adapter                    6292
 :arith-fixed-eqs                     11972
 :arith-gcd-conflicts                 76
 :arith-gcd-tests                     550
 :arith-gomory-cuts                   18
 :arith-ineq-splits                   50
 :arith-num-rows                      74
 :arith-offset-eqs                    2860
 :arith-patches                       102
 :arith-patches_succ                  32
 :arith-pivots                        2074
 :arith-row-summations                23760
 :arith-tableau-max-columns           152
 :arith-tableau-max-rows              74
 :conflicts                           1628
 :decisions                           52456
 :del-clause                          18176
 :final-checks                        832
 :iuc_solver.num_proxies              168
 :max-memory                          35.32
 :memory                              34.44
 :minimized-lits                      630
 :mk-bool-var                         19392
 :mk-clause                           22060
 :num-allocs                          225811728
 :num-checks                          1416
 :pool_solver.checks                  708
 :pool_solver.checks.sat              187
 :pool_solver.checks.undef            156
 :propagations                        193396
 :rlimit-count                        971584
 :time                                0.76
 :time.iuc_solver.get_iuc             0.09
 :time.iuc_solver.get_iuc.hyp_reduce1 0.03
 :time.iuc_solver.get_iuc.hyp_reduce2 0.04
 :time.iuc_solver.get_iuc.learn_core  0.01
 :time.pool_solver.proof              0.02
 :time.pool_solver.smt.total          0.39
 :time.pool_solver.smt.total.sat      0.13
 :time.pool_solver.smt.total.undef    0.10
 :time.spacer.ctp                     0.00
 :time.spacer.init_rules              0.00
 :time.spacer.mbp                     0.01
 :time.spacer.solve                   0.74
 :time.spacer.solve.propagate         0.13
 :time.spacer.solve.reach             0.61
 :time.spacer.solve.reach.children    0.03
 :time.spacer.solve.reach.cluster     0.06
 :time.spacer.solve.reach.gen.global  0.06
 :time.spacer.solve.reach.gen.ind     0.13
 :time.spacer.solve.reach.is-reach    0.01)
(:max-memory   35.32
 :memory       34.44
 :num-allocs   225811728
 :rlimit-count 971584
 :time         0.76
 :total-time   0.78)
